c 
c G(n,p) graph
c graph gen seed     : 17583
c number of vertices : 30
c max number of edges: 500
c edge probability   : 0.600000
c data structure     : dense
c
c           Graph Stats
c number of vertices  : 30
c nonisolated vertices: 30
c number of edges     : 275
c edge density        : 0.632184
c max degree          : 22
c avg degree          : 18.33
c min degree          : 11
p col 30 275
e 1 6
e 1 9
e 1 10
e 1 11
e 1 12
e 1 14
e 1 19
e 1 21
e 1 22
e 1 25
e 1 26
e 1 28
e 1 30
e 2 3
e 2 4
e 2 5
e 2 6
e 2 7
e 2 10
e 2 11
e 2 12
e 2 13
e 2 14
e 2 15
e 2 16
e 2 18
e 2 21
e 2 22
e 2 23
e 2 24
e 2 27
e 2 28
e 2 29
e 2 30
e 3 4
e 3 5
e 3 6
e 3 7
e 3 8
e 3 9
e 3 13
e 3 14
e 3 15
e 3 16
e 3 17
e 3 18
e 3 19
e 3 20
e 3 21
e 3 22
e 3 23
e 3 25
e 3 28
e 3 29
e 3 30
e 4 5
e 4 6
e 4 9
e 4 10
e 4 11
e 4 12
e 4 13
e 4 14
e 4 16
e 4 21
e 4 23
e 4 24
e 4 25
e 4 26
e 4 27
e 4 30
e 5 7
e 5 8
e 5 9
e 5 11
e 5 14
e 5 15
e 5 16
e 5 19
e 5 21
e 5 23
e 5 26
e 5 27
e 5 29
e 5 30
e 6 7
e 6 8
e 6 10
e 6 11
e 6 13
e 6 16
e 6 17
e 6 19
e 6 20
e 6 22
e 6 23
e 6 24
e 6 25
e 6 27
e 6 29
e 6 30
e 7 9
e 7 10
e 7 14
e 7 17
e 7 18
e 7 19
e 7 20
e 7 21
e 7 22
e 7 24
e 7 25
e 7 28
e 7 29
e 7 30
e 8 10
e 8 12
e 8 13
e 8 15
e 8 19
e 8 20
e 8 22
e 8 23
e 8 26
e 8 28
e 8 29
e 8 30
e 9 10
e 9 11
e 9 12
e 9 13
e 9 14
e 9 15
e 9 16
e 9 17
e 9 20
e 9 21
e 9 22
e 9 25
e 9 29
e 9 30
e 10 13
e 10 16
e 10 17
e 10 18
e 10 19
e 10 20
e 10 23
e 10 24
e 10 26
e 10 27
e 10 29
e 11 14
e 11 15
e 11 18
e 11 19
e 11 20
e 11 22
e 11 24
e 11 26
e 11 27
e 11 28
e 11 29
e 11 30
e 12 13
e 12 14
e 12 15
e 12 16
e 12 18
e 12 19
e 12 20
e 12 21
e 12 23
e 12 24
e 12 25
e 12 26
e 12 28
e 12 29
e 12 30
e 13 14
e 13 15
e 13 16
e 13 17
e 13 18
e 13 19
e 13 20
e 13 21
e 13 22
e 13 23
e 13 24
e 13 27
e 13 28
e 13 30
e 14 16
e 14 18
e 14 19
e 14 20
e 14 24
e 14 25
e 14 26
e 14 28
e 14 30
e 15 16
e 15 20
e 15 21
e 15 23
e 15 25
e 15 26
e 15 28
e 15 29
e 15 30
e 16 18
e 16 19
e 16 20
e 16 21
e 16 24
e 16 25
e 16 29
e 16 30
e 17 18
e 17 19
e 17 21
e 17 22
e 17 24
e 18 21
e 18 22
e 18 25
e 18 26
e 18 27
e 18 28
e 18 29
e 18 30
e 19 20
e 19 21
e 19 22
e 19 23
e 19 24
e 19 26
e 19 27
e 19 28
e 19 29
e 20 22
e 20 23
e 20 25
e 20 26
e 20 28
e 20 30
e 21 22
e 21 23
e 21 24
e 21 25
e 21 26
e 21 29
e 22 24
e 22 25
e 22 27
e 22 28
e 23 24
e 23 25
e 23 26
e 23 27
e 23 28
e 23 30
e 24 25
e 24 27
e 24 30
e 25 26
e 25 28
e 25 29
e 26 30
e 27 28
e 27 29
e 28 29
e 28 30
e 29 30
